&projwfc
outdir='./'
degauss=0.02,
DeltaE=0.01,
/
