&CONTROL
calculation='scf',
restart_mode='from_scratch',
outdir='.',
/
&SYSTEM
ntyp=1,
nat=2,
ibrav=0,
ecutwfc=20,
ecutrho=200,
occupations='smearing',
degauss=0.02,
/
CELL_PARAMETERS (angstrom)
3 0 0
0 3 0
0 0 3
ATOMIC_SPECIES
Li li_usp.UPF
ATOMIC_POSITIONS (crystal)
Li 0 0 0
Li 0.5 0.5 0.5
K_POINTS automatic
6 6 6 0 0 0
